c ---- [ banner ] ------------------------------------------------------------
c
c Kissat SAT Solver
c 
c Copyright (c) 2021-2024 Armin Biere University of Freiburg
c Copyright (c) 2019-2021 Armin Biere Johannes Kepler University Linz
c 
c Version 4.0.1 43f02cf3e992cb44653b35e5cb26f93281552ae0
c gcc (Ubuntu 13.2.0-23ubuntu4) 13.2.0 -W -Wall -O3 -DNDEBUG
c Thu Sep 12 12:27:46 CEST 2024 Linux abryzen9 6.8.0-41-generic x86_64
c
c ---- [ parsing ] -----------------------------------------------------------
c
c opened and reading DIMACS file:
c
c   /data/artifact/AMulet2.0_artifact/exp4/cnf_mfs_64/64_64_U_SP_WT_LF_GenMul_mfs.cnf
c
c parsed 'p cnf 36512 141978' header
c closing input after reading 2762714 bytes (3 MB)
c finished parsing after 0.02 seconds
c
c ---- [ options ] -----------------------------------------------------------
c
c --stable=0                       (different from default '1')
c
c ---- [ solving ] -----------------------------------------------------------
c
c  seconds switched rate     size/glue tier1  binary           remaining
c         MB reductions conflicts size  tier2     irredundant
c          level restarts redundant glue  trail           variables
c
c *  0.02 11 0 0 0  0 0   0   0 0.0 0 0 0 0 0% 29440 112536 36509 100%
c (  0.04 13 0 0 0  0 0   0   0 0.0 0 0 0 0 0% 29440 112536 36509 100%
c .  0.05 13 0 0 0  0 0   0   0 0.0 0 0 0 0 0% 29436 112536 36509 100%
c c  0.16 21 0 0 0  0 0   0   0 0.0 0 0 0 0 0% 36662 98304 32895 90%
c d  0.17 21 0 0 0  0 0   0   0 0.0 0 0 0 0 0% 29434 98304 32895 90%
c =  0.23 21 0 0 0  0 0   0   0 0.0 0 0 0 0 0% 29878 98304 32601 89%
c d  0.24 21 0 0 0  0 0   0   0 0.0 0 0 0 0 0% 29290 98304 32601 89%
c f  0.35 20 0 0 0  0 0   0   0 0.0 0 0 0 0 0% 32182 93670 34341 94%
c e  0.53 29 0 0 0  0 0   0   0 0.0 0 0 0 0 0% 10465 107701 23225 64%
c )  0.53 29 0 0 0  0 0   0   0 0.0 0 0 0 0 0% 10465 107701 23225 64%
c {  0.55 29 0 0 0  0 0   0   0 0.0 0 0 2 6 0% 10465 107701 23225 64%
c -  0.80 29 152 0 1 268 37 1000 740 3.5 18 5 3 9 20% 10543 107677 23225 64%
c -  1.18 29 212 0 2 418 40 2001 1465 4.8 28 6 3 10 25% 10583 107677 23225 64%
c c  1.50 24 201 0 2 529 40 2503 1915 4.1 31 7 3 10 26% 10603 107665 23223 64%
c d  1.51 24 201 0 2 529 40 2503 1915 4.1 31 7 3 10 26% 10599 107665 23223 64%
c u  1.53 24 201 0 2 529 40 2503 1454 4.1 31 7 3 10 26% 10606 107665 23223 64%
c v  1.56 24 201 0 2 529 40 2503 1236 4.1 31 7 3 10 26% 10607 107665 23223 64%
c w  1.60 26 201 0 2 529 40 2503 1236 4.1 31 7 3 10 26% 10607 107665 23223 64%
c x  1.62 26 201 0 2 529 40 2503 1236 4.1 31 7 3 10 26% 10710 107478 23223 64%
c =  1.72 26 201 0 2 529 40 2503 1236 4.1 31 7 3 10 26% 11094 107478 23031 63%
c
c  seconds   switched   rate       size/glue tier1     binary           remaining
c         MB  reductions conflicts       size  tier2       irredundant
c           level restarts    redundant    glue    trail           variables
c
c d  1.72 26 201 0 2 529 40 2503 1234 4.1 31 7 3 10 26% 10710 107478 23031 63%
c t  1.74 26 201 0 2 529 40 2503 1234 4.1 31 7 3 10 26% 10706 107478 23031 63%
c f  1.78 26 201 0 2 529 40 2503 1234 4.1 31 7 3 10 26% 11536 105939 23739 65%
c u  1.82 26 201 0 2 529 40 2503 1168 4.1 31 7 3 10 26% 11540 105939 23739 65%
c v  1.85 26 201 0 2 529 40 2503 1130 4.1 31 7 3 10 26% 11540 105939 23739 65%
c w  1.89 26 201 0 2 529 40 2503 1129 4.1 31 7 3 10 26% 11540 105939 23739 65%
c x  1.91 26 201 0 2 529 40 2503 1129 4.1 31 7 3 10 26% 11541 105494 23739 65%
c =  2.01 26 201 0 2 529 40 2503 1129 4.1 31 7 3 10 26% 12053 105494 23483 64%
c d  2.02 26 201 0 2 529 40 2503 1129 4.1 31 7 3 10 26% 11480 105494 23483 64%
c f  2.07 26 201 0 2 529 40 2503 1129 4.1 31 7 3 10 26% 12214 104389 23852 65%
c -  2.27 28 280 0 3 589 36 3415 1647 4.3 31 7 2 11 25% 12249 104387 23852 65%
c -  2.64 28 323 0 4 731 33 5147 2531 4.0 29 7 2 9 24% 12363 104378 23852 65%
c -  2.83 28 354 0 5 787 28 7147 3680 3.7 24 7 2 9 22% 12452 104369 23852 65%
c c  3.01 28 336 0 5 809 26 7709 4190 3.5 23 7 2 9 22% 12465 104309 23830 65%
c d  3.02 28 336 0 5 809 26 7709 4159 3.5 23 7 2 9 22% 12398 104309 23818 65%
c u  3.05 28 336 0 5 809 26 7709 3263 3.5 23 7 2 9 22% 12413 104309 23818 65%
c v  3.08 28 336 0 5 809 26 7709 3027 3.5 23 7 2 9 22% 12413 104309 23818 65%
c w  3.10 28 336 0 5 809 26 7709 3022 3.5 23 7 2 9 22% 12413 104309 23818 65%
c x  3.12 28 336 0 5 809 26 7709 3022 3.5 23 7 2 9 22% 12415 104303 23818 65%
c =  3.21 28 336 0 5 809 26 7709 3022 3.5 23 7 2 9 22% 12863 104303 23594 65%
c
c  seconds   switched   rate       size/glue tier1    binary           remaining
c         MB  reductions conflicts       size  tier2      irredundant
c           level restarts    redundant    glue   trail           variables
c
c d  3.22 28 336 0 5 809 26 7709 3005 3.5 23 7 2 9 22% 12357 104303 23591 65%
c t  3.24 28 336 0 5 809 26 7709 3005 3.5 23 7 2 9 22% 12347 104303 23591 65%
c f  3.27 28 336 0 5 809 26 7709 3005 3.5 23 7 2 9 22% 13487 102590 24162 66%
c u  3.31 28 336 0 5 809 26 7709 2898 3.5 23 7 2 9 22% 13488 102590 24162 66%
c v  3.35 28 336 0 5 809 26 7709 2586 3.5 23 7 2 9 22% 13490 102590 24162 66%
c w  3.36 28 336 0 5 809 26 7709 2578 3.5 23 7 2 9 22% 13490 102590 24162 66%
c =  3.45 28 336 0 5 809 26 7709 2578 3.5 23 7 2 9 22% 13998 102590 23908 65%
c d  3.46 28 336 0 5 809 26 7709 2567 3.5 23 7 2 9 22% 13444 102590 23908 65%
c t  3.48 28 336 0 5 809 26 7709 2567 3.5 23 7 2 9 22% 13441 102590 23908 65%
c f  3.52 28 336 0 5 809 26 7709 2567 3.5 23 7 2 9 22% 14169 101492 24274 66%
c -  3.79 28 342 0 6 883 26 9383 3466 3.6 22 6 2 9 23% 14234 101492 24274 66%
c o  3.90 28 352 0 6 915 25 10287 4211 3.5 21 6 2 9 23% 14276 101492 24274 66%
c -  4.30 28 361 0 7 1065 27 11833 4920 3.7 23 6 2 8 22% 14375 101484 24274 66%
c s  4.50 28 352 0 7 1097 26 12511 5439 3.7 23 6 2 8 23% 14398 98722 24274 66%
c e  4.63 28 352 0 7 1097 26 12511 5439 3.7 23 6 2 8 23% 12228 100180 23033 63%
c 2  4.63 28 352 0 7 1097 26 12511 5439 3.7 23 6 2 8 23% 12225 100180 23033 63%
c s  4.64 28 352 0 7 1097 26 12511 5439 3.7 23 6 2 8 23% 12230 98858 23033 63%
c e  4.66 28 352 0 7 1097 26 12511 5439 3.7 23 6 2 8 23% 12217 98866 23022 63%
c ^  4.66 28 352 0 7 1097 26 12511 5439 3.7 23 6 2 8 23% 12217 98866 23022 63%
c -  5.25 28 353 0 8 1284 27 14478 5871 3.8 23 6 2 8 23% 12271 98862 23022 63%
c
c  seconds   switched    rate        size/glue tier1    binary          remaining
c         MB  reductions   conflicts       size  tier2      irredundant
c           level  restarts     redundant    glue   trail          variables
c
c d  5.53 28 365 0 8 1372 28 15790 7007 3.8 24 6 2 8 23% 12074 98859 22873 63%
c u  5.57 28 365 0 8 1372 28 15790 5339 3.8 24 6 2 8 23% 12092 98859 22873 63%
c v  5.62 28 365 0 8 1372 28 15790 4596 3.8 24 6 2 8 23% 12092 98859 22873 63%
c w  5.68 28 365 0 8 1372 28 15790 4592 3.8 24 6 2 8 23% 12092 98859 22873 63%
c x  5.72 28 365 0 8 1372 28 15790 4592 3.8 24 6 2 8 23% 12112 94878 22873 63%
c =  5.91 28 365 0 8 1372 28 15790 4592 3.8 24 6 2 8 23% 13324 94878 22267 61%
c d  5.92 28 365 0 8 1372 28 15790 4547 3.8 24 6 2 8 23% 11850 94878 22267 61%
c t  5.94 28 365 0 8 1372 28 15790 4547 3.8 24 6 2 8 23% 11820 94878 22267 61%
c f  6.02 28 365 0 8 1372 28 15790 4547 3.8 24 6 2 8 23% 11828 94837 22280 61%
c u  6.12 28 365 0 8 1372 28 15790 4186 3.8 24 6 2 8 23% 11833 94837 22280 61%
c v  6.15 28 365 0 8 1372 28 15790 4082 3.8 24 6 2 8 23% 11833 94837 22280 61%
c w  6.23 28 365 0 8 1372 28 15790 4063 3.8 24 6 2 8 23% 11833 94837 22280 61%
c x  6.27 28 365 0 8 1372 28 15790 4063 3.8 24 6 2 8 23% 11876 93674 22280 61%
c =  6.45 28 365 0 8 1372 28 15790 4063 3.8 24 6 2 8 23% 13398 93674 21519 59%
c d  6.46 28 365 0 8 1372 28 15790 4026 3.8 24 6 2 8 23% 11536 93674 21519 59%
c t  6.48 28 365 0 8 1372 28 15790 4026 3.8 24 6 2 8 23% 11527 93674 21519 59%
c f  6.52 28 365 0 8 1372 28 15790 4026 3.8 24 6 2 8 23% 11528 93665 21522 59%
c -  6.99 28 369 0 9 1540 29 17307 4733 4.1 25 6 2 8 23% 11587 93661 21522 59%
c -  7.67 28 385 0 10 1752 29 20307 6542 4.1 25 6 2 7 23% 11706 93653 21522 59%
c o  7.68 28 395 0 10 1753 28 20820 7006 4.0 24 6 2 7 23% 11726 93652 21522 59%
c
c  seconds   switched     rate        size/glue tier1    binary          remaining
c         MB   reductions   conflicts       size  tier2      irredundant
c           level   restarts     redundant    glue   trail          variables
c
c -  8.14 28 375 0 11 1906 28 23469 8345 4.0 24 6 2 7 23% 11785 93652 21522 59%
c s  8.46 28 366 0 11 2000 27 25015 9693 4.0 24 6 2 7 23% 11822 92894 21522 59%
c e  8.61 28 366 0 11 2000 27 25015 9693 4.0 24 6 2 7 23% 10072 96932 18220 50%
c s  8.64 28 366 0 11 2000 27 25015 9693 4.0 24 6 2 7 23% 10114 93201 18220 50%
c e  8.69 28 366 0 11 2000 27 25015 9693 4.0 24 6 2 7 23% 10084 93245 18203 50%
c ^  8.69 28 366 0 11 2000 27 25015 9693 4.0 24 6 2 7 23% 10084 93245 18203 50%
c -  9.13 28 349 0 12 2142 27 26785 8140 3.8 23 6 2 7 23% 10108 93245 18203 50%
c d  9.18 28 348 0 12 2158 27 26918 8256 3.8 23 6 2 7 23% 10030 93245 18154 50%
c u  9.23 28 348 0 12 2158 27 26918 6645 3.8 23 6 2 7 23% 10047 93245 18154 50%
c v  9.28 28 348 0 12 2158 27 26918 5730 3.8 23 6 2 7 23% 10048 93245 18154 50%
c w  9.30 28 348 0 12 2158 27 26918 5722 3.8 23 6 2 7 23% 10048 93245 18154 50%
c x  9.38 28 348 0 12 2158 27 26918 5719 3.8 23 6 2 7 23% 10097 91505 18154 50%
c =  9.62 28 348 0 12 2158 27 26918 5719 3.8 23 6 2 7 23% 11249 91505 17578 48%
c d  9.63 28 348 0 12 2158 27 26918 5663 3.8 23 6 2 7 23% 9905 91505 17575 48%
c t  9.65 28 348 0 12 2158 27 26918 5663 3.8 23 6 2 7 23% 9877 91505 17575 48%
c f  9.74 28 348 0 12 2158 27 26918 5663 3.8 23 6 2 7 23% 9888 91379 17600 48%
c u  9.79 28 348 0 12 2158 27 26918 5401 3.8 23 6 2 7 23% 9892 91379 17600 48%
c v  9.82 28 348 0 12 2158 27 26918 5279 3.8 23 6 2 7 23% 9892 91379 17600 48%
c w  9.83 28 348 0 12 2158 27 26918 5271 3.8 23 6 2 7 23% 9892 91379 17600 48%
c x  9.95 28 348 0 12 2158 27 26918 5271 3.8 23 6 2 7 23% 9915 87524 17600 48%
c
c  seconds   switched     rate        size/glue tier1    binary          remaining
c         MB   reductions   conflicts       size  tier2      irredundant
c           level   restarts     redundant    glue   trail          variables
c
c = 10.19 28 348 0 12 2158 27 26918 5271 3.8 23 6 2 7 23% 12327 87524 16394 45%
c d 10.19 28 348 0 12 2158 27 26918 5175 3.8 23 6 2 7 23% 9855 87524 16394 45%
c t 10.21 28 348 0 12 2158 27 26918 5175 3.8 23 6 2 7 23% 9818 87524 16394 45%
c f 10.27 28 348 0 12 2158 27 26918 5175 3.8 23 6 2 7 23% 9822 87500 16400 45%
c - 10.93 28 319 0 13 2403 25 30251 7355 3.5 21 6 2 7 24% 9843 87500 16400 45%
c - 11.41 28 297 0 14 2646 24 33856 9483 3.4 20 6 2 7 23% 9878 87497 16400 45%
c - 12.10 28 278 0 15 2932 24 37597 11237 3.3 19 6 2 7 23% 9941 87496 16400 45%
c o 12.61 28 276 0 15 3163 24 40821 14137 3.2 19 6 2 7 22% 9978 87495 16400 45%
c d 12.76 28 274 0 15 3217 24 41244 14465 3.2 19 6 2 7 22% 9917 87495 16366 45%
c u 12.83 28 274 0 15 3217 24 41244 12070 3.2 19 6 2 7 22% 9929 87495 16366 45%
c v 12.90 28 274 0 15 3217 24 41244 11087 3.2 19 6 2 7 22% 9929 87495 16366 45%
c w 12.95 28 274 0 15 3217 24 41244 11087 3.2 19 6 2 7 22% 9929 87495 16366 45%
c x 13.03 29 274 0 15 3217 24 41244 11087 3.2 19 6 2 7 22% 9932 82141 16366 45%
c = 13.29 29 274 0 15 3217 24 41244 11087 3.2 19 6 2 7 22% 10756 82140 15954 44%
c d 13.30 29 274 0 15 3217 24 41244 10773 3.2 19 6 2 7 22% 9884 82140 15954 44%
c t 13.32 29 274 0 15 3217 24 41244 10773 3.2 19 6 2 7 22% 9860 82140 15954 44%
c u 13.48 29 274 0 15 3217 24 41244 10156 3.2 19 6 2 7 22% 9871 82140 15954 44%
c v 13.53 29 274 0 15 3217 24 41244 9471 3.2 19 6 2 7 22% 9873 82140 15954 44%
c w 13.62 29 274 0 15 3217 24 41244 9456 3.2 19 6 2 7 22% 9873 82140 15954 44%
c x 13.68 29 274 0 15 3217 24 41244 9456 3.2 19 6 2 7 22% 9884 81378 15954 44%
c
c  seconds   switched     rate        size/glue tier1    binary          remaining
c         MB   reductions   conflicts       size  tier2      irredundant
c           level   restarts     redundant    glue   trail          variables
c
c = 13.94 29 274 0 15 3217 24 41244 9456 3.2 19 6 2 7 22% 10496 81378 15648 43%
c d 13.95 29 274 0 15 3217 24 41244 9266 3.2 19 6 2 7 22% 9857 81378 15648 43%
c t 13.97 29 274 0 15 3217 24 41244 9266 3.2 19 6 2 7 22% 9842 81378 15648 43%
c - 14.02 29 273 0 16 3217 24 41469 8393 3.2 19 6 2 7 23% 9843 81378 15648 43%
c - 14.80 29 260 0 17 3565 23 45470 10662 3.1 19 6 2 7 23% 9863 81378 15648 43%
c - 15.82 29 246 0 18 4009 23 49593 12923 3.1 19 6 2 6 23% 9887 81377 15648 43%
c s 16.41 29 248 0 18 4258 23 52115 15143 3.1 19 6 2 6 24% 9907 74862 15648 43%
c e 16.53 29 248 0 18 4258 23 52115 15143 3.1 19 6 2 6 24% 8085 78206 14304 39%
c s 16.54 29 248 0 18 4258 23 52115 15143 3.1 19 6 2 6 24% 8097 77265 14304 39%
c e 16.57 29 248 0 18 4258 23 52115 15143 3.1 19 6 2 6 24% 8068 77311 14290 39%
c ^ 16.57 29 248 0 18 4258 23 52115 15143 3.1 19 6 2 6 24% 8068 77311 14290 39%
c - 16.92 29 243 0 19 4425 23 53835 12940 3.1 19 6 2 6 24% 8079 77309 14290 39%
c - 17.94 29 234 0 20 4936 23 58195 14920 3.0 19 6 2 6 24% 8117 77309 14290 39%
c d 18.09 29 232 0 20 5022 23 58877 15427 3.0 19 6 2 6 24% 8104 77309 14279 39%
c u 18.17 29 232 0 20 5022 23 58877 12660 3.0 19 6 2 6 24% 8122 77309 14279 39%
c v 18.26 29 232 0 20 5022 23 58877 11083 3.0 19 6 2 6 24% 8122 77309 14279 39%
c w 18.29 29 232 0 20 5022 23 58877 11044 3.0 19 6 2 6 24% 8122 77309 14279 39%
c x 18.42 29 232 0 20 5022 23 58877 11039 3.0 19 6 2 6 24% 8134 76062 14279 39%
c d 18.80 29 232 0 20 5022 23 58877 11030 3.0 19 6 2 6 24% 8124 76062 14274 39%
c t 18.82 29 232 0 20 5022 23 58877 11030 3.0 19 6 2 6 24% 8113 76062 14274 39%
c
c  seconds   switched     rate         size/glue tier1    binary         remaining
c         MB   reductions   conflicts        size  tier2     irredundant
c           level   restarts      redundant    glue   trail         variables
c
c f 18.87 29 232 0 20 5022 23 58877 11030 3.0 19 6 2 6 24% 8117 76029 14279 39%
c u 18.95 29 232 0 20 5022 23 58877 10595 3.0 19 6 2 6 24% 8118 76029 14279 39%
c v 19.00 29 232 0 20 5022 23 58877 10382 3.0 19 6 2 6 24% 8118 76029 14279 39%
c w 19.03 29 232 0 20 5022 23 58877 10366 3.0 19 6 2 6 24% 8118 76029 14279 39%
c x 19.21 29 232 0 20 5022 23 58877 10362 3.0 19 6 2 6 24% 8145 75192 14279 39%
c t 19.23 29 232 0 20 5022 23 58877 10362 3.0 19 6 2 6 24% 8138 75192 14279 39%
c - 19.96 29 223 0 21 5310 23 62668 12408 2.9 18 6 2 6 24% 8147 75192 14279 39%
c - 20.77 29 214 0 22 5695 22 67250 14889 2.9 18 6 2 6 24% 8179 75192 14279 39%
c o 21.60 29 208 0 22 6053 22 70821 18165 2.8 18 6 2 6 24% 8203 75192 14279 39%
c - 21.79 29 206 0 23 6140 22 71940 16853 2.8 18 6 2 6 24% 8217 75192 14279 39%
c - 22.89 29 200 0 24 6738 22 76735 18686 2.8 18 6 2 6 24% 8265 75191 14279 39%
c d 23.78 29 199 0 24 7194 23 79951 21348 2.9 18 6 2 6 24% 8226 75189 14229 39%
c u 23.88 29 199 0 24 7194 23 79951 18066 2.9 18 6 2 6 24% 8256 75189 14229 39%
c v 23.99 29 199 0 24 7194 23 79951 15969 2.9 18 6 2 6 24% 8264 75189 14229 39%
c w 24.06 29 199 0 24 7194 23 79951 15969 2.9 18 6 2 6 24% 8264 75189 14229 39%
c x 24.16 29 199 0 24 7194 23 79951 15966 2.9 18 6 2 6 24% 8264 74814 14229 39%
c = 24.54 29 199 0 24 7194 23 79951 15966 2.9 18 6 2 6 24% 8454 74810 14134 39%
c d 24.55 29 199 0 24 7194 23 79951 15846 2.9 18 6 2 6 24% 8230 74810 14123 39%
c t 24.57 29 199 0 24 7194 23 79951 15846 2.9 18 6 2 6 24% 8204 74810 14123 39%
c f 24.58 29 199 0 24 7194 23 79951 15846 2.9 18 6 2 6 24% 8204 74804 14124 39%
c
c  seconds   switched     rate         size/glue tier1    binary         remaining
c         MB   reductions   conflicts        size  tier2     irredundant
c           level   restarts      redundant    glue   trail         variables
c
c u 24.67 29 199 0 24 7194 23 79951 15117 2.9 18 6 2 6 24% 8213 74804 14124 39%
c v 24.74 29 199 0 24 7194 23 79951 14767 2.9 18 6 2 6 24% 8214 74804 14124 39%
c w 24.91 29 199 0 24 7194 23 79951 14754 2.9 18 6 2 6 24% 8214 74804 14124 39%
c x 25.04 29 199 0 24 7194 23 79951 14752 2.9 18 6 2 6 24% 8219 74080 14124 39%
c = 25.50 29 199 0 24 7194 23 79951 14752 2.9 18 6 2 6 24% 8699 74040 13880 38%
c d 25.51 29 199 0 24 7194 23 79951 14484 2.9 18 6 2 6 24% 8161 74040 13880 38%
c t 25.53 29 199 0 24 7194 23 79951 14484 2.9 18 6 2 6 24% 8138 74040 13880 38%
c f 25.55 29 199 0 24 7194 23 79951 14484 2.9 18 6 2 6 24% 8140 74027 13882 38%
c - 25.90 29 197 0 25 7350 23 81636 14328 2.8 18 6 2 6 24% 8144 74023 13882 38%
c - 26.70 29 190 0 26 7707 22 86636 16893 2.8 18 6 2 6 24% 8171 74018 13882 38%
c - 27.85 29 183 0 27 8273 22 91736 19278 2.7 18 6 2 6 24% 8206 74011 13882 38%
c s 28.83 29 181 0 27 8800 22 95801 22943 2.7 18 6 2 6 24% 8240 73164 13882 38%
c e 28.96 29 181 0 27 8800 22 95801 22943 2.7 18 6 2 6 24% 5632 80054 12429 34%
c 2 28.96 29 181 0 27 8800 22 95801 22943 2.7 18 6 2 6 24% 5630 80054 12429 34%
c s 28.98 29 181 0 27 8800 22 95801 22943 2.7 18 6 2 6 24% 5656 79379 12429 34%
c e 29.01 29 181 0 27 8800 22 95801 22943 2.7 18 6 2 6 24% 5602 79539 12370 34%
c ^ 29.01 29 181 0 27 8800 22 95801 22943 2.7 18 6 2 6 24% 5602 79539 12370 34%
c - 29.36 29 181 0 28 9005 22 96932 16634 2.8 18 6 2 6 24% 5607 79539 12370 34%
c - 30.47 29 176 0 29 9687 23 102223 19135 2.7 18 7 2 5 24% 5651 79538 12370 34%
c c 31.00 29 174 0 29 9969 23 104584 21260 2.7 18 7 2 5 24% 5732 79255 12322 34%
c
c  seconds   switched     rate          size/glue tier1    binary         remaining
c         MB   reductions   conflicts         size  tier2     irredundant
c           level   restarts       redundant    glue   trail         variables
c
c d 31.01 29 174 0 29 9969 23 104584 21105 2.7 18 7 2 5 24% 5636 79255 12322 34%
c u 31.13 29 174 0 29 9969 23 104584 17462 2.7 18 7 2 5 24% 5674 79255 12322 34%
c v 31.21 29 174 0 29 9969 23 104584 15656 2.7 18 7 2 5 24% 5681 79255 12322 34%
c w 31.34 29 174 0 29 9969 23 104584 15592 2.7 18 7 2 5 24% 5681 79255 12322 34%
c x 31.44 29 174 0 29 9969 23 104584 15590 2.7 18 7 2 5 24% 5685 79091 12322 34%
c = 31.96 29 174 0 29 9969 23 104584 15590 2.7 18 7 2 5 24% 6163 79091 12083 33%
c d 31.97 29 174 0 29 9969 23 104584 15289 2.7 18 7 2 5 24% 5607 79091 12081 33%
c t 31.99 29 174 0 29 9969 23 104584 15289 2.7 18 7 2 5 24% 5587 79091 12081 33%
c f 32.08 29 174 0 29 9969 23 104584 15289 2.7 18 7 2 5 24% 5629 78868 12100 33%
c u 32.19 29 174 0 29 9969 23 104584 14418 2.7 18 7 2 5 24% 5630 78868 12100 33%
c v 32.24 29 174 0 29 9969 23 104584 14128 2.7 18 7 2 5 24% 5630 78868 12100 33%
c w 32.42 29 174 0 29 9969 23 104584 13809 2.7 18 7 2 5 24% 5630 78868 12100 33%
c = 32.94 29 174 0 29 9969 23 104584 13809 2.7 18 7 2 5 24% 5910 78868 11960 33%
c d 32.95 29 174 0 29 9969 23 104584 13744 2.7 18 7 2 5 24% 5620 78868 11960 33%
c t 32.96 29 174 0 29 9969 23 104584 13744 2.7 18 7 2 5 24% 5603 78868 11960 33%
c f 32.98 29 174 0 29 9969 23 104584 13744 2.7 18 7 2 5 24% 5607 78846 11962 33%
c - 33.61 29 171 0 30 10269 22 107608 14691 2.7 18 7 2 5 24% 5627 78846 11962 33%
c o 34.09 29 169 0 30 10463 22 111134 17680 2.7 18 7 2 5 24% 5654 78846 11962 33%
c - 34.48 29 168 0 31 10643 22 113085 17573 2.7 18 7 2 5 24% 5658 78846 11962 33%
c - 35.72 29 166 0 32 11189 22 118653 18370 2.7 18 7 1 5 24% 5680 78845 11962 33%
c
c  seconds   switched      rate          size/glue tier1    binary         remaining
c         MB   reductions    conflicts         size  tier2     irredundant
c           level   restarts        redundant    glue   trail         variables
c
c - 36.76 29 161 0 33 11685 22 124310 19352 2.7 18 7 1 5 24% 5707 78845 11962 33%
c - 37.96 29 160 0 34 12194 21 130054 20431 2.7 19 7 1 5 24% 5750 78844 11962 33%
c d 38.89 29 160 0 34 12579 22 132840 22853 2.7 19 7 1 5 24% 5674 78843 11914 33%
c u 38.99 29 160 0 34 12579 22 132840 20428 2.7 19 7 1 5 24% 5690 78843 11914 33%
c v 39.13 29 160 0 34 12579 22 132840 17065 2.7 19 7 1 5 24% 5696 78843 11914 33%
c w 39.30 29 160 0 34 12579 22 132840 17057 2.7 19 7 1 5 24% 5696 78843 11914 33%
c x 39.41 29 160 0 34 12579 22 132840 17057 2.7 19 7 1 5 24% 5696 78802 11914 33%
c = 39.98 29 160 0 34 12579 22 132840 17057 2.7 19 7 1 5 24% 5728 78802 11898 33%
c d 39.99 29 160 0 34 12579 22 132840 17008 2.7 19 7 1 5 24% 5675 78802 11890 33%
c t 40.00 29 160 0 34 12579 22 132840 17008 2.7 19 7 1 5 24% 5668 78802 11890 33%
c f 40.02 29 160 0 34 12579 22 132840 17008 2.7 19 7 1 5 24% 5674 78767 11893 33%
c c 40.07 29 160 0 34 12579 22 132840 16959 2.7 19 7 1 5 24% 5704 78615 11876 33%
c d 40.08 29 160 0 34 12579 22 132840 16959 2.7 19 7 1 5 24% 5670 78615 11876 33%
c u 40.16 29 160 0 34 12579 22 132840 16413 2.7 19 7 1 5 24% 5674 78615 11876 33%
c v 40.23 29 160 0 34 12579 22 132840 15797 2.7 19 7 1 5 24% 5679 78615 11876 33%
c w 40.51 29 160 0 34 12579 22 132840 15315 2.7 19 7 1 5 24% 5679 78615 11876 33%
c = 40.91 29 160 0 34 12579 22 132840 15315 2.7 19 7 1 5 24% 5765 78609 11833 32%
c d 40.91 29 160 0 34 12579 22 132840 15242 2.7 19 7 1 5 24% 5662 78609 11831 32%
c t 40.92 29 160 0 34 12579 22 132840 15242 2.7 19 7 1 5 24% 5659 78609 11831 32%
c f 40.93 29 160 0 34 12579 22 132840 15242 2.7 19 7 1 5 24% 5671 78547 11836 32%
c
c  seconds   switched      rate          size/glue tier1    binary         remaining
c         MB   reductions    conflicts         size  tier2     irredundant
c           level   restarts        redundant    glue   trail         variables
c
c - 41.27 29 159 0 35 12785 21 135884 15355 2.7 19 7 1 5 24% 5684 78547 11836 32%
c - 42.08 29 158 0 36 13333 21 141800 18016 2.7 20 7 1 5 24% 5713 78546 11836 32%
c i 42.56 29 157 0 36 13658 21 147002 22458 2.8 20 7 1 5 24% 5763 78543 11835 32%
c - 42.70 29 157 0 37 13750 21 147800 20110 2.8 20 7 1 5 24% 5754 78543 11835 32%
c i 42.80 29 156 0 37 13811 21 148186 20441 2.8 20 7 1 5 24% 5766 78541 11834 32%
c i 43.32 29 155 0 37 14167 21 151357 23342 2.8 20 7 1 5 24% 5784 78541 11832 32%
c i 43.32 29 155 0 37 14170 21 151421 23384 2.8 20 7 1 5 24% 5789 78541 11831 32%
c i 43.41 29 156 0 37 14234 21 151828 23754 2.8 20 7 1 5 24% 5793 78541 11829 32%
c - 43.77 29 155 0 38 14465 21 153882 21683 2.8 21 7 1 5 24% 5788 78541 11829 32%
c s 44.52 29 155 0 38 14941 21 157880 25354 2.8 21 7 1 5 25% 5802 76461 11829 32%
c e 44.64 29 155 0 38 14941 21 157880 25354 2.8 21 7 1 5 25% 3308 88989 10149 28%
c 2 44.64 29 155 0 38 14941 21 157880 25354 2.8 21 7 1 5 25% 3307 88989 10149 28%
c s 44.67 29 155 0 38 14941 21 157880 25354 2.8 21 7 1 5 25% 3324 87326 10149 28%
c e 44.69 29 155 0 38 14941 21 157880 25354 2.8 21 7 1 5 25% 3273 87555 10106 28%
c ^ 44.69 29 155 0 38 14941 21 157880 25354 2.8 21 7 1 5 25% 3273 87555 10106 28%
c - 44.98 29 154 0 39 15124 21 160046 16229 2.8 21 7 1 5 25% 3281 87553 10106 28%
c o 45.11 29 154 0 39 15202 21 161209 17248 2.8 21 7 1 5 25% 3283 87553 10106 28%
c d 45.61 29 153 0 39 15600 21 164822 20390 2.8 21 8 1 5 25% 3280 87550 10095 28%
c u 45.66 29 153 0 39 15600 21 164822 18094 2.8 21 8 1 5 25% 3299 87550 10095 28%
c v 45.72 29 153 0 39 15600 21 164822 14882 2.8 21 8 1 5 25% 3302 87550 10095 28%
c
c  seconds   switched      rate          size/glue tier1    binary         remaining
c         MB   reductions    conflicts         size  tier2     irredundant
c           level   restarts        redundant    glue   trail         variables
c
c w 45.98 29 153 0 39 15600 21 164822 14623 2.8 21 8 1 5 25% 3302 87550 10095 28%
c = 46.48 29 153 0 39 15600 21 164822 14623 2.8 21 8 1 5 25% 3610 87381 9926 27%
c d 46.48 29 153 0 39 15600 21 164822 14186 2.8 21 8 1 5 25% 3254 87379 9926 27%
c t 46.49 29 153 0 39 15600 21 164822 14186 2.8 21 8 1 5 25% 3241 87379 9926 27%
c f 46.60 29 153 0 39 15600 21 164822 14186 2.8 21 8 1 5 25% 3305 86629 9962 27%
c u 46.66 29 153 0 39 15600 21 164822 13519 2.8 21 8 1 5 25% 3305 86629 9962 27%
c v 46.70 29 153 0 39 15600 21 164822 13009 2.8 21 8 1 5 25% 3307 86629 9962 27%
c w 46.87 29 153 0 39 15600 21 164822 12680 2.8 21 8 1 5 25% 3307 86629 9962 27%
c x 46.96 29 153 0 39 15600 21 164822 12669 2.8 21 8 1 5 25% 3341 84276 9962 27%
c t 47.47 29 153 0 39 15600 21 164822 12669 2.8 21 8 1 5 25% 3318 84276 9962 27%
c - 47.58 29 152 0 40 15651 21 166290 11959 2.8 21 8 1 5 25% 3320 84276 9962 27%
c i 47.64 29 151 0 40 15692 21 167141 12673 2.8 21 8 1 5 25% 3330 84276 9961 27%
c i 47.84 29 150 0 40 15862 21 169311 14612 2.8 21 8 1 5 25% 3339 84276 9959 27%
c i 47.84 29 150 0 40 15862 21 169507 14741 2.8 21 8 1 5 25% 3344 84276 9958 27%
c i 47.84 29 150 0 40 15862 21 169597 14796 2.8 21 8 1 5 25% 3353 84276 9956 27%
c - 48.03 29 148 0 41 16009 20 172614 14478 2.7 20 7 1 5 25% 3343 84276 9956 27%
c i 48.29 29 146 0 41 16218 20 175862 17439 2.7 20 7 1 5 25% 3352 84276 9955 27%
c i 48.34 29 145 0 41 16266 20 176950 18356 2.7 20 7 1 5 25% 3357 84276 9954 27%
c - 48.51 29 145 0 42 16471 20 179017 16951 2.7 20 7 1 5 25% 3352 84276 9954 27%
c i 48.59 29 144 0 42 16576 20 179748 17594 2.7 20 8 1 5 25% 3359 84276 9953 27%
c
c  seconds   switched      rate          size/glue tier1    binary        remaining
c         MB   reductions    conflicts         size  tier2     irredundant
c           level   restarts        redundant    glue   trail        variables
c
c i 48.63 29 144 0 42 16617 20 180397 18158 2.7 20 8 1 5 25% 3366 84276 9952 27%
c i 48.66 29 144 0 42 16640 20 180612 18354 2.7 20 8 1 5 25% 3367 84276 9951 27%
c i 48.76 29 142 0 42 16737 20 182682 20182 2.7 20 8 1 5 25% 3375 84276 9950 27%
c i 48.88 29 140 0 42 16888 19 185349 22473 2.7 20 7 1 5 24% 3385 84275 9949 27%
c - 48.89 29 140 0 43 16896 19 185497 18407 2.7 20 7 1 5 24% 3364 84275 9949 27%
c i 48.90 29 139 0 43 16910 19 186141 18903 2.7 20 7 1 5 24% 3378 84275 9947 27%
c i 48.97 29 135 0 43 17022 18 190031 22208 2.6 20 7 1 5 23% 3420 84274 9946 27%
c i 48.97 29 135 0 43 17022 18 190253 22356 2.6 20 7 1 5 23% 3433 84274 9945 27%
c i 48.98 29 135 0 43 17024 18 190529 22557 2.6 20 7 1 5 23% 3454 84272 9942 27%
c i 48.98 29 135 0 43 17024 18 190541 22562 2.6 20 7 1 5 23% 3457 84272 9908 27%
c i 48.98 29 135 0 43 17024 18 190542 22562 2.6 20 7 1 5 23% 3457 84272 9886 27%
c } 48.98 29 135 0 43 17024 18 190544 22562 2.6 20 7 1 5 23% 3457 84272 9878 27%
c 0 48.98 29 135 0 43 17024 18 190544 22562 2.6 20 7 1 5 23% 3457 84272 9878 27%
c
c ---- [ result ] ------------------------------------------------------------
c
s UNSATISFIABLE
c
c ---- [ profiling ] ---------------------------------------------------------
c
c          33.90   69.21 %  search
c          33.90   69.21 %  focused
c          14.53   29.67 %  simplify
c          13.82   28.22 %  probe
c           6.02   12.28 %  sweep
c           5.40   11.02 %  vivify
c           1.02    2.08 %  eliminate
c           0.98    2.00 %  factor
c           0.67    1.36 %  substitute
c           0.52    1.06 %  congruence
c           0.49    0.99 %  preprocess
c           0.28    0.57 %  reduce
c           0.19    0.38 %  subsume
c           0.17    0.34 %  fastel
c           0.15    0.31 %  transitive
c           0.09    0.18 %  backbone
c           0.04    0.08 %  lucky
c           0.02    0.05 %  parse
c =============================================
c          48.98  100.00 %  total
c
c ---- [ statistics ] --------------------------------------------------------
c
c chronological:                         5332                3 %  conflicts
c conflicts:                           190544             3890.00 per second
c congruent:                             3703               10 %  variables
c decisions:                          3661944               19.22 per conflict
c eliminated:                           20280               56 %  variables
c factored:                              3874               11 %  variables
c fast_eliminated:                      11116               55 %  eliminated
c fast_strengthened:                       15                0 %  per strengthened
c fast_subsumed:                           77                0 %  per subsumed
c iterations:                              23                0 %  variables
c propagations:                     154231215          3148669    per second
c reductions:                              43             4431    interval
c reordered:                                6            31757    interval
c restarts:                             17024               11    interval
c strengthened:                          6297                0 %  checks
c substituted:                          10114               28 %  variables
c subsumed:                             21223                1 %  checks
c switched:                                 0                0    interval
c vivified:                             82031               13 %  checks
c
c ---- [ glue usage ] --------------------------------------------------------
c
c focused glue 1 used 282071 clauses 57.02% accumulated 57.02% tier1
c focused glue 2 used 105241 clauses 21.27% accumulated 78.29%
c focused glue 3 used  35074 clauses  7.09% accumulated 85.38%
c focused glue 4 used  18987 clauses  3.84% accumulated 89.22%
c focused glue 5 used  12377 clauses  2.50% accumulated 91.72% tier2
c
c ---- [ resources ] ---------------------------------------------------------
c
c maximum-resident-set-size:         32231424 bytes         31 MB
c process-time:                            49s              48.98 seconds
c
c ---- [ shutting down ] -----------------------------------------------------
c
c exit 20
